Version identifier: 12.10.0.0 | 2019-11-26 | 843d4de
CPXPARAM_WorkMem                                 28672
Tried aggregator 2 times.
MIP Presolve modified 10 coefficients.
Aggregator did 45 substitutions.
Reduced MIP has 245 rows, 300 columns, and 1130 nonzeros.
Reduced MIP has 300 binaries, 0 generals, 0 SOSs, and 0 indicators.
Presolve time = 0,00 sec. (1,12 ticks)
Found incumbent of value 225,000000 after 0,00 sec. (2,06 ticks)
Probing time = 0,00 sec. (0,43 ticks)
Tried aggregator 1 time.
Detecting symmetries...
MIP Presolve eliminated 60 rows and 0 columns.
MIP Presolve added 120 rows and 0 columns.
Reduced MIP has 305 rows, 300 columns, and 1190 nonzeros.
Reduced MIP has 300 binaries, 0 generals, 0 SOSs, and 0 indicators.
Presolve time = 0,00 sec. (1,40 ticks)
Probing time = 0,00 sec. (0,42 ticks)
Clique table members: 769.
MIP emphasis: balance optimality and feasibility.
MIP search method: dynamic search.
Parallel mode: deterministic, using up to 16 threads.
Root relaxation solution time = 0,00 sec. (1,50 ticks)

        Nodes                                         Cuts/
   Node  Left     Objective  IInf  Best Integer    Best Bound    ItCnt     Gap

*     0+    0                          225,0000        0,0000           100,00%
*     0+    0                          114,0000        0,0000           100,00%
*     0+    0                          110,0000        0,0000           100,00%
      0     0       45,0000   183      110,0000       45,0000      158   59,09%
      0     0       45,2959   183      110,0000     Cuts: 167      257   58,82%
      0     0       46,2727   183      110,0000     Cuts: 176      309   57,93%
      0     0       46,6082   183      110,0000     Cuts: 151      357   57,63%
      0     0       46,8618   183      110,0000     Cuts: 106      418   57,40%
      0     0       46,8952   183      110,0000     Cuts: 121      429   57,37%
      0     0       46,9550   183      110,0000      Cuts: 77      445   57,31%
      0     0       46,9944   183      110,0000       Cuts: 9      485   57,28%
      0     0       47,0796   183      110,0000      Cuts: 84      505   57,20%
      0     0       47,1107   183      110,0000   ZeroHalf: 3      514   57,17%
      0     0       47,1690   183      110,0000       Cuts: 4      562   57,12%
      0     0       47,2286   183      110,0000      Cuts: 61      588   57,06%
      0     0       47,2721   183      110,0000   ZeroHalf: 3      599   57,03%
      0     0       47,3000   183      110,0000   ZeroHalf: 4      615   57,00%
      0     0       47,3148   183      110,0000   ZeroHalf: 1      624   56,99%
      0     0       47,3381   183      110,0000      Cuts: 13      635   56,97%
      0     0       47,3469   183      110,0000   ZeroHalf: 1      642   56,96%
      0     0       47,3767   183      110,0000      Cuts: 19      659   56,93%
      0     0       47,3959   183      110,0000       Cuts: 5      678   56,91%
*     0+    0                           97,0000       47,3959            51,14%
      0     0       47,4028   183       97,0000      Cuts: 15      687   45,50%
      0     0       49,0806   183       97,0000      Cuts: 19      829   45,50%
      0     0       49,2556   183       97,0000      Cuts: 30      889   45,50%
      0     2       49,2556   240       97,0000       52,8605      889   45,50%
Elapsed time = 0,30 sec. (168,74 ticks, tree = 0,02 MB, solutions = 4)
   3405  2076       95,0141    45       97,0000       71,6173   104454   26,17%

Performing restart 1

Repeating presolve.
Tried aggregator 1 time.
Reduced MIP has 305 rows, 300 columns, and 1190 nonzeros.
Reduced MIP has 300 binaries, 0 generals, 0 SOSs, and 0 indicators.
Presolve time = 0,00 sec. (0,70 ticks)
Tried aggregator 1 time.
Reduced MIP has 305 rows, 300 columns, and 1190 nonzeros.
Reduced MIP has 300 binaries, 0 generals, 0 SOSs, and 0 indicators.
Presolve time = 0,00 sec. (0,99 ticks)
Represolve time = 0,01 sec. (6,95 ticks)
   4602     0       50,4757   239       97,0000      Cuts: 29   164744   24,04%
   4602     0       51,3232   239       97,0000      Cuts: 14   164834   24,04%
   4602     0       52,0737   239       97,0000       Cuts: 9   164964   24,04%
   4602     0       52,1447   239       97,0000       Cuts: 9   165008   24,04%
   4602     2       52,1447   299       97,0000       73,6803   165008   24,04%
   4611     9       64,5416   235       97,0000       73,6803   166493   24,04%
   6361  1070       76,2500   188       97,0000       73,6803   209646   24,04%
   8732  2888       93,7104    93       97,0000       73,6803   277940   24,04%
  10562  4410        cutoff             97,0000       73,6803   335300   24,04%

Performing restart 2

Repeating presolve.
Tried aggregator 1 time.
Reduced MIP has 305 rows, 300 columns, and 1190 nonzeros.
Reduced MIP has 300 binaries, 0 generals, 0 SOSs, and 0 indicators.
Presolve time = 0,00 sec. (0,70 ticks)
Tried aggregator 1 time.
Reduced MIP has 305 rows, 300 columns, and 1190 nonzeros.
Reduced MIP has 300 binaries, 0 generals, 0 SOSs, and 0 indicators.
Presolve time = 0,00 sec. (0,99 ticks)
Represolve time = 0,01 sec. (9,69 ticks)
  10571     0       52,4936   299       97,0000       Cuts: 6   351820   24,04%
  10571     0       52,5843   299       97,0000       Cuts: 5   351847   24,04%
  10571     0       52,6132   299       97,0000   ZeroHalf: 7   351873   24,04%
  10571     0       53,1559   299       97,0000      Cuts: 13   351963   24,04%
  10571     0       53,4847   299       97,0000       Cuts: 7   352067   24,04%
  10571     0       53,5277   299       97,0000       Cuts: 8   352111   24,04%
  10571     2       53,5277   299       97,0000       73,6803   352111   24,04%
  12561  1256       80,1092   106       97,0000       73,6803   397416   24,04%
  14480  2460       85,4574   159       97,0000       73,6803   459350   24,04%
* 15035+ 2839                           96,0000       74,7985            22,08%
  24671  7128        cutoff             96,0000       84,2398   759165   12,25%
Elapsed time = 4,24 sec. (3647,33 ticks, tree = 20,06 MB, solutions = 5)
* 28275  7613      integral     0       94,0000       86,2845   859035    8,21%

GUB cover cuts applied:  3
Clique cuts applied:  40
Cover cuts applied:  428
Flow cuts applied:  1
Mixed integer rounding cuts applied:  94
Zero-half cuts applied:  17
Lift and project cuts applied:  22
Gomory fractional cuts applied:  31

Root node processing (before b&c):
  Real time             =    0,29 sec. (168,40 ticks)
Parallel b&c, 16 threads:
  Real time             =    5,23 sec. (4271,81 ticks)
  Sync time (average)   =    1,32 sec.
  Wait time (average)   =    0,01 sec.
                          ------------
Total (root+branch&cut) =    5,52 sec. (4440,20 ticks)
